p tw 84 256
1 9
2 10
3 11
4 12
5 13
6 14
7 15
8 16
9 19
9 22
9 34
9 36
10 28
10 31
10 34
10 35
11 17
11 21
11 22
11 23
12 21
12 26
12 30
12 33
13 18
13 24
13 28
13 29
14 17
14 18
14 19
14 20
15 24
15 25
15 26
15 27
16 25
16 30
16 31
16 32
17 18
17 19
17 20
17 21
17 22
17 23
18 19
18 20
18 24
18 28
18 29
19 20
19 22
19 34
19 36
20 37
20 38
20 39
20 40
21 22
21 23
21 26
21 30
21 33
22 23
22 34
22 36
23 37
23 41
23 42
23 43
24 25
24 26
24 27
24 28
24 29
25 26
25 27
25 30
25 31
25 32
26 27
26 30
26 33
27 44
27 45
27 46
27 47
28 29
28 31
28 34
28 35
29 38
29 44
29 48
29 49
30 31
30 32
30 33
31 32
31 34
31 35
32 45
32 50
32 51
32 52
33 41
33 46
33 50
33 53
34 35
34 36
35 48
35 51
35 54
35 55
36 39
36 42
36 54
36 56
37 38
37 39
37 40
37 41
37 42
37 43
38 39
38 40
38 44
38 48
38 49
39 40
39 42
39 54
39 56
40 57
40 58
40 59
40 60
41 42
41 43
41 46
41 50
41 53
42 43
42 54
42 56
43 57
43 61
43 62
43 63
44 45
44 46
44 47
44 48
44 49
45 46
45 47
45 50
45 51
45 52
46 47
46 50
46 53
47 64
47 65
47 66
47 67
48 49
48 51
48 54
48 55
49 58
49 64
49 68
49 69
50 51
50 52
50 53
51 52
51 54
51 55
52 65
52 70
52 71
52 72
53 61
53 66
53 70
53 73
54 55
54 56
55 68
55 71
55 74
55 75
56 59
56 62
56 74
56 76
57 58
57 59
57 60
57 61
57 62
57 63
58 59
58 60
58 64
58 68
58 69
59 60
59 62
59 74
59 76
60 79
61 62
61 63
61 66
61 70
61 73
62 63
62 74
62 76
63 82
64 65
64 66
64 67
64 68
64 69
65 66
65 67
65 70
65 71
65 72
66 67
66 70
66 73
67 78
68 69
68 71
68 74
68 75
69 80
70 71
70 72
70 73
71 72
71 74
71 75
72 77
73 81
74 75
74 76
75 83
76 84
